Version identifier: 22.1.1.0 | 2022-11-28 | 9160aff4d
CPXPARAM_ClockType                               1
CPXPARAM_Read_DataCheck                          1
CPXPARAM_Threads                                 1
CPXPARAM_TimeLimit                               7200
CPXPARAM_MIP_Tolerances_AbsMIPGap                0
CPXPARAM_MIP_Tolerances_MIPGap                   0
CPXPARAM_MIP_Tolerances_Integrality              0
Tried aggregator 6 times.
MIP Presolve eliminated 16721 rows and 3328 columns.
MIP Presolve modified 2585 coefficients.
Aggregator did 10741 substitutions.
Reduced MIP has 273589 rows, 99191 columns, and 887288 nonzeros.
Reduced MIP has 99191 binaries, 0 generals, 0 SOSs, and 0 indicators.
Presolve time = 3.52 sec. (1875.03 ticks)
Probing fixed 618 vars, tightened 0 bounds.
Probing time = 3.36 sec. (1017.52 ticks)
Cover probing fixed 0 vars, tightened 3 bounds.
Tried aggregator 4 times.
Detecting symmetries...
MIP Presolve eliminated 9017 rows and 3408 columns.
MIP Presolve modified 188 coefficients.
Aggregator did 293 substitutions.
Reduced MIP has 264279 rows, 95490 columns, and 862044 nonzeros.
Reduced MIP has 95490 binaries, 0 generals, 0 SOSs, and 0 indicators.
Presolve time = 5.63 sec. (2944.61 ticks)
Probing time = 0.10 sec. (27.74 ticks)
Clique table members: 370141.
MIP emphasis: balance optimality and feasibility.
MIP search method: dynamic search.
Parallel mode: none, using 1 thread.
Root relaxation solution time = 2495.50 sec. (467462.29 ticks)

        Nodes                                         Cuts/
   Node  Left     Objective  IInf  Best Integer    Best Bound    ItCnt     Gap

      0     0    46163.0000 37058                  46163.0000   331415         

Clique cuts applied:  9847

Root node processing (before b&c):
  Real time             = 7200.31 sec. (2507245.68 ticks)
Sequential b&c:
  Real time             =    0.00 sec. (0.00 ticks)
                          ------------
Total (root+branch&cut) = 7200.31 sec. (2507245.68 ticks)
Solution is infeasible.

---------------------
@@@ MIP_time_limit_infeasible
Traceback (most recent call last):
  File "/scratch/scherif/DiverseSAT-journal_sup/DiverseSAT_Supplementary_Experiments/experiment-1/cplex/jobs/../solvers/CPLEX-IW-SE.py", line 105, in <module>
    print(f">>> Benchmark {os.path.basename(cnf_file)} k {k} OPT {int(prob.solution.get_objective_value())}"
  File "/users/scherif/.local/lib/python3.9/site-packages/cplex/_internal/_subinterfaces.py", line 7211, in get_objective_value
    return CPX_PROC.getobjval(self._env._e, self._cplex._lp)
  File "/users/scherif/.local/lib/python3.9/site-packages/cplex/_internal/_procedural.py", line 2055, in getobjval
    check_status(env, status)
  File "/users/scherif/.local/lib/python3.9/site-packages/cplex/_internal/_procedural.py", line 249, in __call__
    raise CplexSolverError(error_string, env, status)
cplex.exceptions.errors.CplexSolverError: CPLEX Error  1217: No solution exists.
